Minimize

1


Subject To

a0: x_0_0_1 = 1
a1: x_0_0_2 = 1
a2: x_0_1_1 = 1
a3: x_0_1_2 = 1
a4: x_1_0_1 = 1
a5: x_1_0_2 = 1
a6: x_1_1_1 = 1
a7: x_1_1_2 = 1




Binary

x_0_0_1 x_0_0_2 x_0_1_1 x_0_1_2 x_1_0_1 x_1_0_2 x_1_1_1 x_1_1_2

 


End
